cfms/WorkingUVLModelBenchmark/BooleguruSMT/FRSCSMendonca2009.txt
(set-logic QF_BV)
(define-fun implies ((p Bool) (q Bool)) Bool (or (not p) q))

(declare-const FRS_CS Bool)
(declare-const PhysicalComponents Bool)
(declare-const Channel Bool)
(declare-const Network Bool)
(declare-const WBAN Bool)
(declare-const WLAN Bool)
(declare-const LAN Bool)
(declare-const BAN Bool)
(declare-const WAN Bool)
(declare-const Client Bool)
(declare-const CaptureDevice Bool)
(declare-const Camera Bool)
(declare-const Thermal Bool)
(declare-const NIR Bool)
(declare-const a3D Bool)
(declare-const HR Bool)
(declare-const LR Bool)
(declare-const Microphone Bool)
(declare-const Extractor Bool)
(declare-const CNN Bool)
(declare-const Facenet Bool)
(declare-const ArcFace Bool)
(declare-const Baidu Bool)
(declare-const FR3DNet Bool)
(declare-const CocoLoss Bool)
(declare-const Holistic Bool)
(declare-const SIFT Bool)
(declare-const FisherFaces Bool)
(declare-const EigenFaces Bool)
(declare-const Gabor Bool)
(declare-const SLDA Bool)
(declare-const ICA Bool)
(declare-const Hybrid Bool)
(declare-const MRF Bool)
(declare-const RBFQT Bool)
(declare-const Server Bool)
(declare-const Comparator Bool)
(declare-const Decision Bool)
(declare-const DistanceMetric Bool)
(declare-const Binary Bool)
(declare-const Float Bool)
(declare-const Integar Bool)
(declare-const Threshold Bool)
(declare-const Storage Bool)
(declare-const BiometricEnrollmentDatabase Bool)
(declare-const SecurityServices Bool)
(declare-const Properties Bool)
(declare-const Confidentiality Bool)
(declare-const Integrity Bool)
(declare-const Availability Bool)
(declare-const Authenticity Bool)
(declare-const Traceability Bool)
(declare-const Authentication Bool)
(declare-const UEBA Bool)
(declare-const EDR Bool)
(declare-const XDR Bool)
(declare-const EPP Bool)
(declare-const TemplateProtection Bool)
(declare-const CancellableBiometrics Bool)
(declare-const BioConvolving Bool)
(declare-const Salting Bool)
(declare-const ARH Bool)
(declare-const BloomFilter Bool)
(declare-const BioHashing Bool)
(declare-const HE Bool)
(declare-const FHE Bool)
(declare-const BGV Bool)
(declare-const CKKS Bool)
(declare-const BFV Bool)
(declare-const PHE Bool)
(declare-const Kyber Bool)
(declare-const Saber Bool)
(declare-const ClassicMcEliece Bool)
(declare-const Paillier Bool)
(declare-const NTRU Bool)
(declare-const CryptoSystem Bool)
(declare-const FuzzyCommitment Bool)
(declare-const FuzzyExtractor Bool)
(declare-const eSketch Bool)
(declare-const FuzzyVault Bool)
(declare-const PDP Bool)
(declare-const SecChannel Bool)
(declare-const Protocol Bool)
(declare-const TLS11 Bool)
(declare-const TLS12 Bool)
(declare-const TLS13 Bool)
(declare-const BilateralAuthentication Bool)
(declare-const MultifactorAuthentication Bool)
(declare-const Password Bool)
(declare-const Token Bool)
(declare-const TOTP Bool)
(declare-const SMS Bool)
(declare-const MultiBiometrics Bool)
(declare-const IsolationModule Bool)
(declare-const HardBased Bool)
(declare-const HSM Bool)
(declare-const TPM Bool)
(declare-const SE Bool)
(declare-const MTM Bool)
(declare-const SoftBased Bool)
(declare-const TEE Bool)
(declare-const SecureBoot Bool)
(declare-const TrustZone Bool)
(declare-const MAC Bool)
(declare-const HMAC Bool)
(declare-const KMAC Bool)
(declare-const CMAC Bool)
(declare-const PostQuantumResistance_Template Bool)
(declare-const ASpoofingTechnique Bool)
(declare-const Static Bool)
(declare-const LBP Bool)
(declare-const GLCM Bool)
(declare-const QC Bool)
(declare-const NIRImages Bool)
(declare-const FaceTemperature Bool)
(declare-const Dynamic Bool)
(declare-const Eye_movement Bool)
(declare-const rPPG Bool)
(declare-const Pupil_changes Bool)
(declare-const ReadChallenge Bool)
(declare-const SystemUpdates Bool)
(declare-const PrivacyServices Bool)
(declare-const ZKP Bool)
(declare-const Ligero Bool)
(declare-const NIZKPoK Bool)
(declare-const ZK_SNARK Bool)
(declare-const Aurora Bool)
(declare-const Hyrax Bool)
(declare-const ZK_STARK Bool)
(declare-const PIR Bool)
(declare-const sDEPIR Bool)
(declare-const pDEPIR Bool)
(declare-const ORAM Bool)
(declare-const VSPIR Bool)
(declare-const PSIR Bool)
(declare-const EPID Bool)
(declare-const Obfuscation Bool)
(declare-const Shuffling Bool)
(declare-const RepeteableMasking Bool)
(declare-const Secret_Padding Bool)
(declare-const BiometricPerformanceService Bool)
(declare-const Accuracy Bool)
(declare-const VeryHigh Bool)
(declare-const High Bool)
(declare-const Medium Bool)
(declare-const TemplateSize Bool)
(declare-const Small Bool)
(declare-const Medium_1 Bool)
(declare-const Large Bool)
(declare-const AuthenticationSpeed Bool)
(declare-const VeryFast Bool)
(declare-const Fast Bool)
(declare-const Medium_2 Bool)
(declare-const SystemSecurityLevel Bool)
(declare-const VeryHigh_1 Bool)
(declare-const High_1 Bool)
(declare-const Medium_3 Bool)
(declare-const Low Bool)
(assert
(and FRS_CS(and(=(or WBAN WLAN LAN BAN WAN)
 Network)
(= Network Channel)
(and(implies(or Thermal NIR a3D HR LR)
 Camera)
(implies Camera(or(and Thermal(not NIR)
(not a3D)
(not HR)
(not LR))
(and(not Thermal)
 NIR(not a3D)
(not HR)
(not LR))
(and(not Thermal)
(not NIR)
 a3D(not HR)
(not LR))
(and(not Thermal)
(not NIR)
(not a3D)
 HR(not LR))
(and(not Thermal)
(not NIR)
(not a3D)
(not HR)
 LR))))
(= Camera CaptureDevice)
(implies Microphone CaptureDevice)
(and(implies(or Facenet ArcFace Baidu FR3DNet CocoLoss)
 CNN)
(implies CNN(or(and Facenet(not ArcFace)
(not Baidu)
(not FR3DNet)
(not CocoLoss))
(and(not Facenet)
 ArcFace(not Baidu)
(not FR3DNet)
(not CocoLoss))
(and(not Facenet)
(not ArcFace)
 Baidu(not FR3DNet)
(not CocoLoss))
(and(not Facenet)
(not ArcFace)
(not Baidu)
 FR3DNet(not CocoLoss))
(and(not Facenet)
(not ArcFace)
(not Baidu)
(not FR3DNet)
 CocoLoss))))
(and(implies(or SIFT FisherFaces EigenFaces Gabor SLDA ICA)
 Holistic)
(implies Holistic(or(and SIFT(not FisherFaces)
(not EigenFaces)
(not Gabor)
(not SLDA)
(not ICA))
(and(not SIFT)
 FisherFaces(not EigenFaces)
(not Gabor)
(not SLDA)
(not ICA))
(and(not SIFT)
(not FisherFaces)
 EigenFaces(not Gabor)
(not SLDA)
(not ICA))
(and(not SIFT)
(not FisherFaces)
(not EigenFaces)
 Gabor(not SLDA)
(not ICA))
(and(not SIFT)
(not FisherFaces)
(not EigenFaces)
(not Gabor)
 SLDA(not ICA))
(and(not SIFT)
(not FisherFaces)
(not EigenFaces)
(not Gabor)
(not SLDA)
 ICA))))
(and(implies(or MRF RBFQT)
 Hybrid)
(implies Hybrid(or(and MRF(not RBFQT))
(and(not MRF)
 RBFQT))))
(and(implies(or CNN Holistic Hybrid)
 Extractor)
(implies Extractor(or(and CNN(not Holistic)
(not Hybrid))
(and(not CNN)
 Holistic(not Hybrid))
(and(not CNN)
(not Holistic)
 Hybrid))))
(and(= CaptureDevice Client)
(= Extractor Client))
(and(implies(or Binary Float Integar)
 DistanceMetric)
(implies DistanceMetric(or(and Binary(not Float)
(not Integar))
(and(not Binary)
 Float(not Integar))
(and(not Binary)
(not Float)
 Integar))))
(and(implies DistanceMetric Decision)
(implies Threshold Decision))
(= BiometricEnrollmentDatabase Storage)
(and(= Comparator Server)
(= Decision Server)
(= Storage Server))
(and(= Channel PhysicalComponents)
(= Client PhysicalComponents)
(= Server PhysicalComponents))
(=(or Confidentiality Integrity Availability Authenticity Traceability Authentication)
 Properties)
(=(or EDR XDR EPP)
 UEBA)
(and(implies(or BioConvolving Salting ARH BloomFilter BioHashing)
 CancellableBiometrics)
(implies CancellableBiometrics(or(and BioConvolving(not Salting)
(not ARH)
(not BloomFilter)
(not BioHashing))
(and(not BioConvolving)
 Salting(not ARH)
(not BloomFilter)
(not BioHashing))
(and(not BioConvolving)
(not Salting)
 ARH(not BloomFilter)
(not BioHashing))
(and(not BioConvolving)
(not Salting)
(not ARH)
 BloomFilter(not BioHashing))
(and(not BioConvolving)
(not Salting)
(not ARH)
(not BloomFilter)
 BioHashing))))
(and(implies(or BGV CKKS BFV)
 FHE)
(implies FHE(or(and BGV(not CKKS)
(not BFV))
(and(not BGV)
 CKKS(not BFV))
(and(not BGV)
(not CKKS)
 BFV))))
(and(implies(or Kyber Saber ClassicMcEliece Paillier NTRU)
 PHE)
(implies PHE(or(and Kyber(not Saber)
(not ClassicMcEliece)
(not Paillier)
(not NTRU))
(and(not Kyber)
 Saber(not ClassicMcEliece)
(not Paillier)
(not NTRU))
(and(not Kyber)
(not Saber)
 ClassicMcEliece(not Paillier)
(not NTRU))
(and(not Kyber)
(not Saber)
(not ClassicMcEliece)
 Paillier(not NTRU))
(and(not Kyber)
(not Saber)
(not ClassicMcEliece)
(not Paillier)
 NTRU))))
(and(implies(or FHE PHE)
 HE)
(implies HE(or(and FHE(not PHE))
(and(not FHE)
 PHE))))
(and(implies(or FuzzyCommitment FuzzyExtractor eSketch FuzzyVault)
 CryptoSystem)
(implies CryptoSystem(or(and FuzzyCommitment(not FuzzyExtractor)
(not eSketch)
(not FuzzyVault))
(and(not FuzzyCommitment)
 FuzzyExtractor(not eSketch)
(not FuzzyVault))
(and(not FuzzyCommitment)
(not FuzzyExtractor)
 eSketch(not FuzzyVault))
(and(not FuzzyCommitment)
(not FuzzyExtractor)
(not eSketch)
 FuzzyVault))))
(and(implies(or CancellableBiometrics HE CryptoSystem)
 TemplateProtection)
(implies TemplateProtection(or(and CancellableBiometrics(not HE)
(not CryptoSystem))
(and(not CancellableBiometrics)
 HE(not CryptoSystem))
(and(not CancellableBiometrics)
(not HE)
 CryptoSystem))))
(and(implies(or TLS11 TLS12 TLS13)
 Protocol)
(implies Protocol(or(and TLS11(not TLS12)
(not TLS13))
(and(not TLS11)
 TLS12(not TLS13))
(and(not TLS11)
(not TLS12)
 TLS13))))
(= Protocol SecChannel)
(implies BilateralAuthentication SecChannel)
(and(= Properties SecurityServices)
(= UEBA SecurityServices)
(= TemplateProtection SecurityServices)
(= PDP SecurityServices)
(= SecChannel SecurityServices))
(=(or Password Token TOTP SMS MultiBiometrics)
 MultifactorAuthentication)
(and(implies(or HSM TPM SE MTM)
 HardBased)
(implies HardBased(or(and HSM(not TPM)
(not SE)
(not MTM))
(and(not HSM)
 TPM(not SE)
(not MTM))
(and(not HSM)
(not TPM)
 SE(not MTM))
(and(not HSM)
(not TPM)
(not SE)
 MTM))))
(and(implies(or TEE SecureBoot TrustZone)
 SoftBased)
(implies SoftBased(or(and TEE(not SecureBoot)
(not TrustZone))
(and(not TEE)
 SecureBoot(not TrustZone))
(and(not TEE)
(not SecureBoot)
 TrustZone))))
(=(or HardBased SoftBased)
 IsolationModule)
(and(implies(or HMAC KMAC CMAC)
 MAC)
(implies MAC(or(and HMAC(not KMAC)
(not CMAC))
(and(not HMAC)
 KMAC(not CMAC))
(and(not HMAC)
(not KMAC)
 CMAC))))
(=(or LBP GLCM QC NIRImages FaceTemperature)
 Static)
(=(or Eye_movement rPPG Pupil_changes ReadChallenge)
 Dynamic)
(=(or Static Dynamic)
 ASpoofingTechnique)
(and(implies MultifactorAuthentication SecurityServices)
(implies IsolationModule SecurityServices)
(implies MAC SecurityServices)
(implies PostQuantumResistance_Template SecurityServices)
(implies ASpoofingTechnique SecurityServices)
(implies SystemUpdates SecurityServices))
(and(implies(or Ligero NIZKPoK ZK_SNARK Aurora Hyrax ZK_STARK)
 ZKP)
(implies ZKP(or(and Ligero(not NIZKPoK)
(not ZK_SNARK)
(not Aurora)
(not Hyrax)
(not ZK_STARK))
(and(not Ligero)
 NIZKPoK(not ZK_SNARK)
(not Aurora)
(not Hyrax)
(not ZK_STARK))
(and(not Ligero)
(not NIZKPoK)
 ZK_SNARK(not Aurora)
(not Hyrax)
(not ZK_STARK))
(and(not Ligero)
(not NIZKPoK)
(not ZK_SNARK)
 Aurora(not Hyrax)
(not ZK_STARK))
(and(not Ligero)
(not NIZKPoK)
(not ZK_SNARK)
(not Aurora)
 Hyrax(not ZK_STARK))
(and(not Ligero)
(not NIZKPoK)
(not ZK_SNARK)
(not Aurora)
(not Hyrax)
 ZK_STARK))))
(and(implies(or sDEPIR pDEPIR ORAM VSPIR PSIR)
 PIR)
(implies PIR(or(and sDEPIR(not pDEPIR)
(not ORAM)
(not VSPIR)
(not PSIR))
(and(not sDEPIR)
 pDEPIR(not ORAM)
(not VSPIR)
(not PSIR))
(and(not sDEPIR)
(not pDEPIR)
 ORAM(not VSPIR)
(not PSIR))
(and(not sDEPIR)
(not pDEPIR)
(not ORAM)
 VSPIR(not PSIR))
(and(not sDEPIR)
(not pDEPIR)
(not ORAM)
(not VSPIR)
 PSIR))))
(and(= ZKP PrivacyServices)
(= PIR PrivacyServices)
(= EPID PrivacyServices))
(=(or Shuffling RepeteableMasking Secret_Padding)
 Obfuscation)
(implies Obfuscation PrivacyServices)
(and(= PhysicalComponents FRS_CS)
(= SecurityServices FRS_CS)
(= PrivacyServices FRS_CS))
(and(implies(or VeryHigh High Medium)
 Accuracy)
(implies Accuracy(or(and VeryHigh(not High)
(not Medium))
(and(not VeryHigh)
 High(not Medium))
(and(not VeryHigh)
(not High)
 Medium))))
(and(implies(or Small Medium_1 Large)
 TemplateSize)
(implies TemplateSize(or(and Small(not Medium_1)
(not Large))
(and(not Small)
 Medium_1(not Large))
(and(not Small)
(not Medium_1)
 Large))))
(and(implies(or VeryFast Fast Medium_2)
 AuthenticationSpeed)
(implies AuthenticationSpeed(or(and VeryFast(not Fast)
(not Medium_2))
(and(not VeryFast)
 Fast(not Medium_2))
(and(not VeryFast)
(not Fast)
 Medium_2))))
(and(implies(or VeryHigh_1 High_1 Medium_3 Low)
 SystemSecurityLevel)
(implies SystemSecurityLevel(or(and VeryHigh_1(not High_1)
(not Medium_3)
(not Low))
(and(not VeryHigh_1)
 High_1(not Medium_3)
(not Low))
(and(not VeryHigh_1)
(not High_1)
 Medium_3(not Low))
(and(not VeryHigh_1)
(not High_1)
(not Medium_3)
 Low))))
(and(= Accuracy BiometricPerformanceService)
(= TemplateSize BiometricPerformanceService)
(= AuthenticationSpeed BiometricPerformanceService)
(= SystemSecurityLevel BiometricPerformanceService))
(implies BiometricPerformanceService FRS_CS))
(and(or(not FuzzyVault)
 Fast)
(or(not BioHashing)
 Fast)
(or(not BFV)
 Medium_1)
(or(not BGV)
 Medium_1)
(or(not CKKS)
 Large)
(or(not Paillier)
 Large)
(or(not NTRU)
 Small)
(or(not Saber)
 Small)
(or NIR(not NIRImages))
(or(not Kyber)
 Small)
(or(not LR)
(not Holistic))
(or(not Salting)
 Medium_2)
(or(not BioConvolving)
 Medium_2)
(or(not ARH)
 Medium_2)
(or a3D(not FR3DNet))
(or Microphone(not ReadChallenge))
(or(not BioHashing)
 Medium_1)
(or(not LR)
(not LBP))
(or(not BloomFilter)
 Fast)
(or(not LR)
(not GLCM))
(or(not ARH)
 Large)
(or(not LR)
(not QC))
(or(not Salting)
 Large)
(or(not Traceability)
 ASpoofingTechnique)
(or Server(not Traceability))
(or(not CKKS)
 Medium_2)
(or Shuffling(not VeryHigh_1))
(or Secret_Padding(not VeryHigh_1))
(or LBP(not VeryHigh_1))
(or QC(not VeryHigh_1))
(or(not FuzzyVault)
 Small)
(or(not eSketch)
 Large)
(or SMS(not VeryHigh_1))
(or MultiBiometrics(not VeryHigh_1))
(or(not FuzzyCommitment)
 Medium_1)
(or(not FuzzyExtractor)
 Small)
(or(not Client)
 UEBA)
(or(not Paillier)
 Medium_2)
(or(not BiometricEnrollmentDatabase)
 PDP)
(or(not Integrity)
 IsolationModule)
(or(not Integrity)
 MAC)
(or(not CaptureDevice)
 ASpoofingTechnique)
(or(not eSketch)
 Medium_2)
(or(not FuzzyExtractor)
 Medium_2)
(or(not Integrity)
 PDP)
(or(not FuzzyCommitment)
 Fast)
(or(not Network)
 SecChannel)
(or(not NTRU)
 VeryFast)
(or(not EDR)
(not XDR))
(or EDR(not VeryHigh_1))
(or EPP(not VeryHigh_1))
(or(not VeryHigh_1)
 BilateralAuthentication)
(or TEE(not VeryHigh_1))
(or HSM(not VeryHigh_1))
(or PostQuantumResistance_Template(not VeryHigh_1))
(or ReadChallenge(not VeryHigh_1))
(or CNN(not VeryHigh_1))
(or rPPG(not VeryHigh_1))
(or(not BioConvolving)
 Medium_1)
(or(not BloomFilter)
 Large)
(or Authentication(not VeryHigh_1))
(or Traceability(not VeryHigh_1))
(or SystemUpdates(not VeryHigh_1))
(or CNN(not High_1))
(or MultifactorAuthentication(not High_1))
(or HR(not VeryHigh_1))
(or Confidentiality(not VeryHigh_1))
(or Integrity(not VeryHigh_1))
(or Authenticity(not VeryHigh_1))
(or LBP(not High_1))
(or UEBA(not High_1))
(or(not High_1)
 BilateralAuthentication)
(or ReadChallenge(not High_1))
(or IsolationModule(not High_1))
(or(not PostQuantumResistance_Template)
(not Medium_3))
(or SystemUpdates(not High_1))
(or(not CancellableBiometrics)
(not High_1))
(or Threshold(not HE))
(or(not PostQuantumResistance_Template)
(not High_1))
(or Threshold(not CancellableBiometrics))
(or(not Threshold)
(not CryptoSystem))
(or(not HardBased)
(not Medium_3))
(or SoftBased(not Medium_3))
(or EDR(not Medium_3))
(or(not Medium_3)
(not BilateralAuthentication))
(or(not MultifactorAuthentication)
(not Medium_3))
(or(not IsolationModule)
(not Low))
(or(not PostQuantumResistance_Template)
(not Low))
(or(not Low)
(not BilateralAuthentication))
(or(not MultifactorAuthentication)
(not Low))
(or TLS13(not VeryFast))
(or(not CNN)
 VeryFast)
(or(not ClassicMcEliece)
 Small)
(or(not ClassicMcEliece)
 VeryFast)
(or(not HE)
 Obfuscation)
(or Extractor(not Traceability))
(or MultifactorAuthentication(not VeryHigh_1))
(or(not ClassicMcEliece)
 PostQuantumResistance_Template)
(or(not Kyber)
 PostQuantumResistance_Template)
(or(not Saber)
 PostQuantumResistance_Template)
(or BiometricEnrollmentDatabase(not Availability))
(or Float(not Paillier))
(or Float(not BGV))
(or Float(not BFV))
(or(not DistanceMetric)
(not CryptoSystem))
(or Binary(not Saber))
(or Binary(not Kyber))
(or Binary(not ClassicMcEliece))
(or Confidentiality(not TemplateProtection))
(or Integar(not CKKS))
(or(not Saber)
 VeryFast)))
)